nNurses = 132;
nHours = 25;
minHours = 3;
maxHours = 12;
maxConsec = 12;
maxPresence = 20;
demand = [24, 27, 31, 36, 39, 39, 42, 37, 36, 40, 45, 48, 50, 49, 48, 47, 46, 44, 48, 44, 40, 43, 40, 41, 43];
